p cnf 20 10
e 1 0
a 2 0
e 3 4 0
a 5 6 7 0
e 8 0
a 9 10 11 12 0
e 13 14 0
a 15 0
e 16 17 18 0
a 19 0
e 20 0
5 17 13 -19 2 0
-4 -19 0
3 14 -6 18 0
-14 -17 -15 12 0
-9 -2 15 -19 0
3 6 -13 -14 0
-11 7 1 5 12 0
10 -18 -15 0
-3 20 12 -18 0
-5 -18 -4 0
